interested/interested_4_1_3_0.3355233901788055.lp
%python3 interested.py 4 1 3 0.3355233901788055
%Seed: 0.3355233901788055
%Sections: 4
%Min Interests: 1
%Max Interests: 3
interested(1,1).
interested(2,1).
interested(3,1).
interested(1,2).
interested(2,2).
interested(4,3).
interested(2,4).
interested(3,4).
interested(1,5).
interested(2,5).
interested(3,5).
interested(2,6).
interested(4,6).
interested(2,7).
interested(3,7).
interested(4,7).
interested(1,8).
interested(3,8).
interested(4,8).
interested(2,9).
interested(2,10).
interested(3,10).
interested(4,10).
interested(2,11).
interested(4,11).
interested(1,12).
interested(2,12).
interested(1,13).
interested(2,13).
interested(3,13).
interested(2,14).
interested(2,15).
interested(3,15).
interested(2,16).
interested(4,16).
interested(4,17).
interested(2,18).
interested(4,18).
interested(1,19).
interested(3,19).
interested(4,19).
interested(3,20).
